TIP.Original.Linear/tip2015_weird_nat_add3acc_assoc1.smt2
(set-logic HORN)
(declare-datatypes ((Nat_511 0)) (((zero_139 ) (succ_135 (p_377 Nat_511)))))
(declare-fun diseqNat_511 (Nat_511 Nat_511) Bool)
(declare-fun p_378 (Nat_511 Nat_511) Bool)
(declare-fun iszero_135 (Nat_511) Bool)
(declare-fun issucc_135 (Nat_511) Bool)
(assert (forall ((x_53169 Nat_511))
	(p_378 x_53169 (succ_135 x_53169))))
(assert (iszero_135 zero_139))
(assert (forall ((x_53171 Nat_511))
	(issucc_135 (succ_135 x_53171))))
(assert (forall ((x_53172 Nat_511))
	(diseqNat_511 zero_139 (succ_135 x_53172))))
(assert (forall ((x_53173 Nat_511))
	(diseqNat_511 (succ_135 x_53173) zero_139)))
(assert (forall ((x_53174 Nat_511) (x_53175 Nat_511))
	(=> (diseqNat_511 x_53174 x_53175)
	    (diseqNat_511 (succ_135 x_53174) (succ_135 x_53175)))))
(declare-fun addacc_19 (Nat_511 Nat_511 Nat_511 Nat_511) Bool)
(assert (forall ((x_53158 Nat_511) (x_53151 Nat_511) (y_2075 Nat_511) (z_1843 Nat_511))
	(=> (addacc_19 x_53158 x_53151 (succ_135 y_2075) z_1843)
	    (addacc_19 x_53158 (succ_135 x_53151) y_2075 z_1843))))
(assert (forall ((x_53160 Nat_511) (x_53152 Nat_511) (z_1843 Nat_511))
	(=> (addacc_19 x_53160 zero_139 x_53152 (succ_135 z_1843))
	    (addacc_19 x_53160 zero_139 (succ_135 x_53152) z_1843))))
(assert (forall ((x_53162 Nat_511))
	(addacc_19 x_53162 zero_139 zero_139 x_53162)))
(assert (forall ((x_53163 Nat_511) (x_53164 Nat_511) (x_53165 Nat_511) (x_53166 Nat_511) (x_53153 Nat_511) (x_53154 Nat_511) (x_53155 Nat_511) (x_53156 Nat_511) (x_53157 Nat_511))
	(=>	(and true
			(diseqNat_511 x_53164 x_53166)
			(addacc_19 x_53163 x_53153 x_53154 x_53155)
			(addacc_19 x_53164 x_53163 x_53156 x_53157)
			(addacc_19 x_53165 x_53155 x_53156 x_53157)
			(addacc_19 x_53166 x_53153 x_53154 x_53165))
		false)))
(check-sat)
